100 100
38 94
28 54
30 17
22 94
1 75
91 40
71 42
41 89
28 20
89 48
11 9
63 15
61 22
51 74
72 55
15 80
35 17
64 82
95 32
14 20
4 55
69 1
28 95
57 95
11 30
28 96
22 43
32 56
8 7
21 99
99 29
25 16
43 68
58 2
76 19
76 55
78 20
39 63
43 60
91 54
35 24
21 9
56 76
30 54
39 23
80 42
3 60
73 3
40 76
65 62
27 57
52 51
56 77
99 22
36 11
64 17
82 97
72 33
46 66
25 96
92 46
24 53
91 67
1 97
11 89
36 63
11 77
29 34
19 70
33 84
59 73
44 28
69 2
1 89
64 22
42 98
94 89
20 84
55 94
76 62
33 58
10 35
99 32
25 4
8 22
9 78
41 64
35 13
51 21
51 34
41 95
53 7
71 25
59 40
77 3
31 48
48 72
26 4
42 27
45 79
